100 1500
1 3
1 8
1 11
1 13
1 22
1 23
1 25
1 26
1 32
1 35
1 37
1 41
1 42
1 43
1 44
1 45
1 46
1 60
1 64
1 67
1 68
1 69
1 76
1 87
1 95
1 98
2 3
2 4
2 8
2 13
2 16
2 17
2 22
2 23
2 24
2 29
2 30
2 33
2 34
2 38
2 41
2 42
2 45
2 47
2 51
2 57
2 60
2 64
2 66
2 69
2 70
2 72
2 75
2 76
2 77
2 80
2 87
2 95
2 96
3 4
3 5
3 8
3 10
3 15
3 19
3 20
3 21
3 22
3 25
3 26
3 27
3 28
3 33
3 36
3 43
3 50
3 52
3 53
3 55
3 57
3 58
3 60
3 69
3 71
3 72
3 73
3 76
3 77
3 88
3 91
3 95
3 97
3 100
4 5
4 7
4 8
4 10
4 17
4 19
4 25
4 26
4 36
4 38
4 44
4 49
4 55
4 61
4 62
4 64
4 65
4 67
4 70
4 72
4 73
4 74
4 77
4 80
4 82
4 83
4 86
4 87
4 89
4 90
4 91
4 96
4 98
4 99
5 9
5 16
5 19
5 21
5 24
5 27
5 30
5 32
5 33
5 34
5 36
5 37
5 44
5 45
5 46
5 49
5 54
5 56
5 59
5 64
5 65
5 67
5 70
5 85
5 87
5 94
6 8
6 13
6 15
6 16
6 28
6 30
6 34
6 35
6 37
6 38
6 40
6 44
6 45
6 48
6 50
6 52
6 56
6 58
6 59
6 62
6 64
6 65
6 66
6 69
6 70
6 72
6 80
6 82
6 83
6 84
6 86
6 95
6 97
7 11
7 12
7 13
7 14
7 15
7 18
7 25
7 26
7 38
7 43
7 44
7 46
7 47
7 48
7 53
7 56
7 63
7 64
7 70
7 71
7 75
7 79
7 88
7 92
7 93
7 94
7 96
7 100
8 9
8 20
8 30
8 35
8 38
8 40
8 41
8 44
8 45
8 49
8 51
8 54
8 55
8 57
8 62
8 64
8 67
8 69
8 70
8 71
8 73
8 77
8 79
8 82
8 100
9 10
9 11
9 13
9 15
9 20
9 22
9 24
9 30
9 32
9 42
9 47
9 49
9 50
9 56
9 67
9 73
9 76
9 78
9 79
9 91
9 94
9 97
9 100
10 12
10 13
10 17
10 21
10 26
10 28
10 31
10 34
10 37
10 38
10 39
10 41
10 48
10 49
10 51
10 52
10 53
10 55
10 57
10 60
10 63
10 69
10 73
10 76
10 90
10 91
10 92
10 96
11 14
11 16
11 17
11 18
11 19
11 20
11 22
11 24
11 26
11 33
11 34
11 35
11 39
11 41
11 46
11 52
11 59
11 61
11 62
11 63
11 69
11 72
11 79
11 81
11 82
11 86
11 91
11 92
11 93
12 14
12 21
12 26
12 28
12 30
12 33
12 35
12 37
12 39
12 42
12 48
12 50
12 52
12 53
12 54
12 55
12 56
12 59
12 60
12 64
12 67
12 71
12 81
12 84
12 88
12 91
12 92
12 93
12 98
12 99
13 14
13 22
13 26
13 28
13 29
13 34
13 36
13 37
13 38
13 43
13 45
13 49
13 55
13 56
13 57
13 58
13 60
13 61
13 69
13 72
13 75
13 86
13 90
13 91
13 93
13 99
13 100
14 15
14 18
14 24
14 30
14 31
14 33
14 34
14 51
14 55
14 57
14 60
14 63
14 64
14 67
14 69
14 71
14 73
14 74
14 76
14 78
14 84
14 85
14 92
14 97
14 98
14 99
15 16
15 34
15 39
15 47
15 57
15 67
15 69
15 74
15 77
15 78
15 82
15 85
15 89
15 91
15 93
15 94
15 97
16 18
16 19
16 22
16 23
16 35
16 36
16 44
16 47
16 49
16 53
16 55
16 59
16 61
16 68
16 70
16 74
16 78
16 80
16 81
16 84
16 85
16 86
16 93
17 18
17 20
17 21
17 23
17 26
17 27
17 28
17 33
17 34
17 37
17 44
17 47
17 48
17 54
17 57
17 61
17 67
17 74
17 81
17 82
17 84
17 85
17 89
17 91
17 92
17 94
17 96
17 97
17 99
17 100
18 19
18 24
18 28
18 30
18 31
18 32
18 47
18 48
18 50
18 51
18 52
18 53
18 55
18 56
18 68
18 74
18 77
18 82
18 100
19 20
19 25
19 26
19 27
19 34
19 35
19 37
19 38
19 39
19 41
19 44
19 51
19 52
19 53
19 55
19 57
19 60
19 63
19 68
19 71
19 73
19 74
19 75
19 77
19 81
19 82
19 89
19 93
19 95
19 96
19 97
19 99
19 100
20 23
20 26
20 29
20 35
20 37
20 40
20 43
20 45
20 51
20 54
20 56
20 57
20 58
20 62
20 65
20 66
20 71
20 73
20 76
20 78
20 80
20 84
20 86
20 88
20 89
20 93
20 94
20 98
20 99
21 22
21 23
21 24
21 27
21 32
21 36
21 39
21 43
21 55
21 56
21 61
21 62
21 64
21 79
21 80
21 81
21 84
21 85
21 86
21 88
21 89
22 23
22 26
22 27
22 36
22 40
22 44
22 50
22 51
22 53
22 55
22 60
22 67
22 68
22 73
22 74
22 75
22 78
22 80
22 81
22 87
22 90
22 95
23 24
23 25
23 27
23 31
23 35
23 36
23 37
23 41
23 43
23 48
23 49
23 52
23 53
23 54
23 59
23 60
23 64
23 66
23 69
23 77
23 86
23 98
23 99
23 100
24 27
24 28
24 33
24 35
24 36
24 42
24 43
24 45
24 49
24 50
24 54
24 56
24 65
24 67
24 73
24 75
24 79
24 81
24 82
24 84
24 88
24 94
24 97
24 98
24 100
25 27
25 28
25 31
25 32
25 34
25 43
25 46
25 47
25 48
25 50
25 52
25 56
25 65
25 66
25 69
25 70
25 76
25 83
25 85
25 87
25 88
25 89
25 91
25 95
26 28
26 41
26 44
26 45
26 52
26 54
26 59
26 62
26 65
26 66
26 67
26 69
26 70
26 72
26 73
26 75
26 76
26 78
26 81
26 83
26 84
26 87
26 88
26 90
26 94
26 96
26 99
27 30
27 32
27 33
27 39
27 42
27 44
27 47
27 49
27 50
27 51
27 53
27 54
27 55
27 56
27 57
27 58
27 59
27 63
27 65
27 69
27 71
27 74
27 79
27 81
27 82
27 85
27 86
27 91
27 92
27 95
27 97
27 100
28 35
28 39
28 40
28 41
28 45
28 50
28 52
28 59
28 61
28 63
28 64
28 65
28 70
28 71
28 80
28 89
28 94
28 99
29 33
29 36
29 41
29 45
29 46
29 50
29 52
29 56
29 57
29 58
29 59
29 66
29 68
29 70
29 72
29 78
29 81
29 87
29 92
29 94
29 98
30 33
30 35
30 47
30 49
30 53
30 55
30 58
30 62
30 70
30 74
30 75
30 78
30 80
30 83
30 85
30 86
30 91
30 92
30 94
31 36
31 52
31 53
31 56
31 60
31 61
31 64
31 70
31 72
31 74
31 79
31 81
31 84
32 34
32 36
32 38
32 41
32 42
32 46
32 47
32 49
32 53
32 55
32 57
32 59
32 63
32 66
32 67
32 71
32 74
32 76
32 85
32 86
32 89
32 92
32 96
33 34
33 36
33 40
33 41
33 47
33 51
33 53
33 57
33 65
33 67
33 71
33 75
33 77
33 81
33 84
33 92
33 93
33 94
33 98
34 37
34 39
34 42
34 43
34 44
34 47
34 48
34 53
34 54
34 62
34 64
34 65
34 69
34 72
34 78
34 80
34 82
34 84
34 87
34 90
34 91
34 92
34 93
34 94
34 97
35 39
35 42
35 43
35 49
35 52
35 53
35 62
35 66
35 68
35 76
35 83
35 85
35 86
35 87
35 92
35 93
35 97
36 37
36 38
36 40
36 54
36 55
36 56
36 58
36 61
36 67
36 68
36 69
36 71
36 75
36 76
36 78
36 80
36 82
36 88
36 90
36 91
36 95
36 96
36 100
37 40
37 58
37 64
37 65
37 68
37 69
37 73
37 76
37 84
37 85
37 88
37 90
37 93
37 94
37 97
38 45
38 50
38 54
38 59
38 63
38 64
38 67
38 73
38 74
38 75
38 78
38 79
38 82
38 83
38 84
38 94
38 97
39 42
39 44
39 45
39 46
39 47
39 56
39 61
39 62
39 68
39 73
39 74
39 77
39 80
39 82
39 88
39 92
39 93
39 98
39 99
39 100
40 43
40 47
40 51
40 55
40 60
40 62
40 63
40 64
40 65
40 69
40 73
40 77
40 79
40 85
40 87
40 88
40 91
40 93
40 94
40 98
40 99
40 100
41 42
41 51
41 54
41 55
41 56
41 59
41 60
41 63
41 66
41 67
41 68
41 70
41 71
41 90
41 93
41 94
41 99
42 43
42 45
42 46
42 56
42 57
42 59
42 60
42 61
42 62
42 67
42 73
42 74
42 77
42 79
42 81
42 83
42 86
42 99
43 44
43 46
43 51
43 52
43 56
43 60
43 61
43 63
43 64
43 69
43 70
43 71
43 73
43 75
43 79
43 80
43 81
43 88
43 96
44 46
44 47
44 51
44 61
44 63
44 65
44 66
44 71
44 74
44 76
44 78
44 82
44 83
44 84
44 86
44 87
44 99
45 47
45 49
45 50
45 53
45 58
45 59
45 67
45 70
45 75
45 76
45 79
45 81
45 84
45 89
45 95
45 98
45 100
46 48
46 49
46 53
46 55
46 63
46 67
46 71
46 73
46 76
46 78
46 94
46 95
46 100
47 52
47 56
47 57
47 60
47 64
47 65
47 67
47 71
47 76
47 78
47 79
47 81
47 82
47 86
47 87
47 88
47 90
48 49
48 55
48 56
48 59
48 68
48 77
48 78
48 84
48 85
48 88
48 90
49 50
49 54
49 56
49 57
49 71
49 72
49 74
49 75
49 81
49 82
49 83
49 85
49 94
49 95
50 52
50 53
50 60
50 62
50 65
50 68
50 73
50 74
50 83
50 89
50 91
50 94
51 53
51 55
51 56
51 58
51 60
51 62
51 69
51 72
51 75
51 76
51 79
51 81
51 85
51 87
51 89
51 91
51 93
51 98
51 100
52 55
52 57
52 63
52 65
52 68
52 74
52 79
52 82
52 83
52 86
52 93
52 94
52 96
52 99
52 100
53 57
53 62
53 73
53 76
53 77
53 83
53 85
53 91
53 92
53 93
53 95
53 96
53 98
53 99
54 62
54 65
54 66
54 67
54 70
54 74
54 75
54 77
54 81
54 82
54 85
54 88
54 90
54 91
54 93
54 96
54 99
55 56
55 64
55 65
55 66
55 73
55 87
55 89
55 91
55 93
55 94
55 98
56 58
56 59
56 66
56 73
56 75
56 76
56 78
56 79
56 82
56 83
56 86
56 89
56 93
56 95
57 61
57 62
57 63
57 67
57 71
57 74
57 75
57 76
57 80
57 81
57 87
57 91
57 93
57 95
57 98
57 99
57 100
58 61
58 62
58 64
58 67
58 76
58 83
58 94
58 96
59 62
59 63
59 70
59 71
59 73
59 74
59 75
59 76
59 78
59 86
59 91
59 93
60 61
60 64
60 69
60 72
60 75
60 77
60 80
60 86
60 93
60 94
60 95
60 98
61 63
61 74
61 75
61 78
61 81
61 83
61 90
61 97
61 99
62 64
62 75
62 78
62 82
62 91
62 95
62 96
62 98
63 67
63 70
63 71
63 75
63 85
63 93
64 66
64 69
64 81
64 82
64 88
64 90
64 91
64 95
65 67
65 72
65 73
65 74
65 80
65 81
65 86
65 87
65 89
65 90
65 98
66 68
66 69
66 71
66 73
66 74
66 77
66 78
66 79
66 81
66 83
66 85
66 87
66 93
66 98
67 68
67 70
67 75
67 78
67 80
67 82
67 87
67 88
67 93
67 96
68 69
68 70
68 72
68 74
68 75
68 79
68 80
68 94
68 95
68 97
69 71
69 74
69 77
69 82
69 84
69 88
69 90
69 95
69 96
70 72
70 75
70 76
70 92
70 94
70 100
71 73
71 75
71 78
71 79
71 82
71 83
71 90
71 95
71 100
72 73
72 75
72 83
72 86
72 87
72 92
72 96
72 97
72 98
72 99
73 75
73 77
73 87
73 88
73 93
73 94
73 95
73 97
73 98
74 78
74 79
74 84
74 88
74 90
74 95
74 96
74 98
74 100
75 78
75 81
75 82
75 88
75 94
75 99
76 81
76 82
76 84
76 86
76 90
76 92
76 95
76 96
76 97
77 78
77 82
77 83
77 84
77 85
77 91
77 93
77 96
78 87
78 88
78 92
78 93
78 95
78 96
79 81
79 83
79 89
79 90
79 94
80 84
80 86
80 87
80 89
80 92
81 82
81 94
81 96
82 83
82 86
82 88
82 92
82 96
82 98
83 91
83 92
83 95
83 98
84 85
84 91
84 99
85 88
85 91
85 93
85 98
85 99
85 100
86 88
86 89
86 93
86 95
86 96
86 97
86 99
86 100
87 88
87 90
87 93
87 97
87 98
88 90
88 93
88 94
88 97
88 98
89 91
89 94
89 96
89 99
90 94
90 98
91 93
91 96
91 99
91 100
92 93
92 94
92 95
93 95
94 97
94 98
95 97
96 100
99 100
